p edges 1208 1889
n 1 7e+20
n 2 7e+20
n 3 7e+20
n 4 7e+20
n 5 7e+20
n 6 7e+20
n 7 7e+20
n 8 7e+20
n 9 7e+20
n 10 1.2e+21
n 11 1e+20
n 12 7e+20
n 13 7e+20
n 14 7e+20
n 15 7e+20
n 16 7e+20
n 17 7e+20
n 18 7e+20
n 19 7e+20
n 20 7e+20
n 21 1.2e+21
n 22 1e+20
n 23 2e+20
n 24 2e+20
n 25 2e+20
n 26 2e+20
n 27 2e+20
n 28 2e+20
n 29 2e+20
n 30 2e+20
n 31 2e+20
n 32 1.1e+21
n 33 1e+20
n 34 1e+20
n 35 1e+20
n 36 1e+20
n 37 1e+20
n 38 1e+20
n 39 1e+20
n 40 5e+20
n 41 7e+20
n 42 6e+20
n 43 5e+20
n 44 3e+20
n 45 4e+20
n 46 3e+20
n 47 2e+20
n 48 1e+21
n 49 1e+20
n 50 1e+20
n 51 1e+20
n 52 1e+20
n 53 1e+20
n 54 1e+20
n 55 1e+20
n 56 1e+20
n 57 1e+20
n 58 1e+20
n 59 1e+20
n 60 1e+20
n 61 1e+20
n 62 1e+20
n 63 1e+20
n 64 1e+20
n 65 1e+20
n 66 1e+20
n 67 1e+20
n 68 1e+20
n 69 1e+20
n 70 1e+20
n 71 1e+20
n 72 1e+20
n 73 1e+20
n 74 3e+20
n 75 2e+20
n 76 2e+20
n 77 2e+20
n 78 2e+20
n 79 1e+20
n 80 1e+20
n 81 3e+20
n 82 2e+20
n 83 2e+20
n 84 2e+20
n 85 1e+20
n 86 1e+20
n 87 3e+20
n 88 2e+20
n 89 2e+20
n 90 2e+20
n 91 1e+20
n 92 1e+20
n 93 3e+20
n 94 2e+20
n 95 2e+20
n 96 2e+20
n 97 1e+20
n 98 1e+20
n 99 3e+20
n 100 2e+20
n 101 2e+20
n 102 2e+20
n 103 1e+20
n 104 1e+20
n 105 3e+20
n 106 2e+20
n 107 2e+20
n 108 2e+20
n 109 1e+20
n 110 1e+20
n 111 3e+20
n 112 2e+20
n 113 2e+20
n 114 2e+20
n 115 1e+20
n 116 1e+20
n 117 3e+20
n 118 2e+20
n 119 2e+20
n 120 2e+20
n 121 1e+20
n 122 1e+20
n 123 3e+20
n 124 2e+20
n 125 2e+20
n 126 2e+20
n 127 1e+20
n 128 1e+20
n 129 1e+20
n 130 1e+20
n 131 1e+20
n 132 1e+20
n 133 1e+20
n 134 1e+20
n 135 3e+20
n 136 1e+20
n 137 1e+20
n 138 1e+20
n 139 3e+20
n 140 2e+20
n 141 1e+20
n 142 1e+20
n 143 1e+20
n 144 2e+20
n 145 1e+20
n 146 1e+20
n 147 1e+20
n 148 2e+20
n 149 1e+20
n 150 1e+20
n 151 2e+20
n 152 1e+20
n 153 1e+20
n 154 1e+20
n 155 1e+20
n 156 1e+20
n 157 1e+20
n 158 1e+20
n 159 1e+20
n 160 1e+20
n 161 1e+20
n 162 1e+20
n 163 1e+20
n 164 1e+20
n 165 1e+20
n 166 1e+20
n 167 1e+20
n 168 1e+20
n 169 1e+20
n 170 1e+20
n 171 1e+20
n 172 1e+20
n 173 1e+20
n 174 1e+20
n 175 1e+20
n 176 1e+20
n 177 1e+20
n 178 1e+20
n 179 1e+20
n 180 1e+20
n 181 1e+20
n 182 1e+20
n 183 1e+20
n 184 1e+20
n 185 1e+20
n 186 2e+20
n 187 1e+20
n 188 1e+20
n 189 1e+20
n 190 1e+20
n 191 1e+20
n 192 1e+20
n 193 1e+20
n 194 1e+20
n 195 2e+20
n 196 1e+21
n 197 1e+20
n 198 1e+20
n 199 2e+20
n 200 1e+20
n 201 1e+20
n 202 3e+20
n 203 5e+20
n 204 4e+20
n 205 1e+20
n 206 1e+21
n 207 1e+20
n 208 1e+20
n 209 2e+20
n 210 1e+20
n 211 1e+20
n 212 3e+20
n 213 4e+20
n 214 1e+20
n 215 1e+21
n 216 1e+20
n 217 1e+20
n 218 2e+20
n 219 1e+20
n 220 1e+20
n 221 3e+20
n 222 5e+20
n 223 4e+20
n 224 1e+20
n 225 1e+20
n 226 1e+20
n 227 2e+20
n 228 1e+20
n 229 1e+20
n 230 3e+20
n 231 4e+20
n 232 1e+20
n 233 1e+20
n 234 1e+20
n 235 2e+20
n 236 1e+20
n 237 1e+20
n 238 3e+20
n 239 5e+20
n 240 4e+20
n 241 1e+20
n 242 1e+20
n 243 1e+20
n 244 2e+20
n 245 1e+20
n 246 1e+20
n 247 3e+20
n 248 4e+20
n 249 1e+20
n 250 1e+20
n 251 1e+20
n 252 2e+20
n 253 1e+20
n 254 1e+20
n 255 3e+20
n 256 5e+20
n 257 4e+20
n 258 1e+20
n 259 1e+20
n 260 1e+20
n 261 2e+20
n 262 1e+20
n 263 1e+20
n 264 3e+20
n 265 4e+20
n 266 1e+20
n 267 1e+20
n 268 1e+20
n 269 2e+20
n 270 1e+20
n 271 1e+20
n 272 3e+20
n 273 5e+20
n 274 4e+20
n 275 1e+20
n 276 1e+20
n 277 1e+20
n 278 2e+20
n 279 1e+20
n 280 1e+20
n 281 3e+20
n 282 4e+20
n 283 1e+20
n 284 1e+20
n 285 1e+20
n 286 2e+20
n 287 1e+20
n 288 1e+20
n 289 3e+20
n 290 5e+20
n 291 4e+20
n 292 1e+20
n 293 1e+20
n 294 1e+20
n 295 2e+20
n 296 1e+20
n 297 1e+20
n 298 3e+20
n 299 4e+20
n 300 1e+20
n 301 1e+20
n 302 1e+20
n 303 2e+20
n 304 1e+20
n 305 1e+20
n 306 3e+20
n 307 5e+20
n 308 4e+20
n 309 1e+20
n 310 1e+20
n 311 1e+20
n 312 2e+20
n 313 1e+20
n 314 1e+20
n 315 3e+20
n 316 4e+20
n 317 1e+20
n 318 1e+20
n 319 1e+20
n 320 2e+20
n 321 1e+20
n 322 1e+20
n 323 3e+20
n 324 5e+20
n 325 4e+20
n 326 1e+20
n 327 1e+20
n 328 1e+20
n 329 2e+20
n 330 1e+20
n 331 1e+20
n 332 3e+20
n 333 4e+20
n 334 1e+20
n 335 1e+20
n 336 1e+20
n 337 2e+20
n 338 1e+20
n 339 1e+20
n 340 3e+20
n 341 5e+20
n 342 4e+20
n 343 1e+20
n 344 1e+20
n 345 1e+20
n 346 3e+20
n 347 4e+20
n 348 1e+20
n 349 1e+20
n 350 1e+20
n 351 2.8e+21
n 352 5e+20
n 353 4e+20
n 354 4e+20
n 355 1e+20
n 356 1e+20
n 357 2e+20
n 358 1e+20
n 359 1e+20
n 360 5e+20
n 361 4e+20
n 362 4e+20
n 363 5e+20
n 364 4e+20
n 365 4e+20
n 366 5e+20
n 367 4e+20
n 368 4e+20
n 369 5e+20
n 370 4e+20
n 371 4e+20
n 372 5e+20
n 373 4e+20
n 374 4e+20
n 375 1e+20
n 376 1e+20
n 377 5e+20
n 378 4e+20
n 379 4e+20
n 380 5e+20
n 381 4e+20
n 382 4e+20
n 383 5e+20
n 384 4e+20
n 385 4e+20
n 386 1e+20
n 387 1e+20
n 388 2e+20
n 389 1e+20
n 390 1e+20
n 391 1e+20
n 392 1e+20
n 393 2e+20
n 394 1e+20
n 395 1e+20
n 396 1e+20
n 397 1e+20
n 398 2e+20
n 399 1e+20
n 400 1e+20
n 401 1e+20
n 402 1e+20
n 403 2e+20
n 404 1e+20
n 405 1e+20
n 406 1e+20
n 407 1e+20
n 408 2e+20
n 409 1e+20
n 410 1e+20
n 411 1e+20
n 412 1e+20
n 413 2e+20
n 414 1e+20
n 415 1e+20
n 416 1e+20
n 417 1e+20
n 418 2e+20
n 419 1e+20
n 420 1e+20
n 421 1e+20
n 422 1e+20
n 423 2e+20
n 424 1e+20
n 425 1e+20
n 426 2.8e+21
n 427 4e+20
n 428 4e+20
n 429 4e+20
n 430 4e+20
n 431 4e+20
n 432 4e+20
n 433 4e+20
n 434 4e+20
n 435 4e+20
n 436 4e+20
n 437 4e+20
n 438 4e+20
n 439 4e+20
n 440 4e+20
n 441 4e+20
n 442 4e+20
n 443 4e+20
n 444 4e+20
n 445 1e+20
n 446 1e+20
n 447 4e+20
n 448 4e+20
n 449 4e+20
n 450 4e+20
n 451 4e+20
n 452 4e+20
n 453 4e+20
n 454 4e+20
n 455 4e+20
n 456 2e+20
n 457 1e+20
n 458 1e+20
n 459 2e+20
n 460 1e+20
n 461 1e+20
n 462 2e+20
n 463 1e+20
n 464 1e+20
n 465 2e+20
n 466 1e+20
n 467 1e+20
n 468 2e+20
n 469 1e+20
n 470 1e+20
n 471 2e+20
n 472 1e+20
n 473 1e+20
n 474 2e+20
n 475 1e+20
n 476 1e+20
n 477 2e+20
n 478 1e+20
n 479 1e+20
n 480 2e+20
n 481 1e+20
n 482 1e+20
n 483 1e+20
n 484 1e+20
n 485 1e+20
n 486 1e+20
n 487 1e+20
n 488 1e+20
n 489 1e+20
n 490 1e+20
n 491 1e+20
n 492 1e+20
n 493 1e+20
n 494 1e+20
n 495 1e+20
n 496 1e+20
n 497 1e+20
n 498 1e+20
n 499 1e+20
n 500 1e+20
n 501 1e+20
n 502 1e+20
n 503 2e+20
n 504 1e+20
n 505 1e+20
n 506 1e+20
n 507 1e+20
n 508 1e+20
n 509 1e+20
n 510 1e+20
n 511 1e+20
n 512 1e+20
n 513 1e+20
n 514 1e+20
n 515 1e+20
n 516 3e+20
n 517 3e+20
n 518 1e+20
n 519 1e+20
n 520 1e+20
n 521 1e+20
n 522 1e+20
n 523 2e+20
n 524 2e+20
n 525 1e+20
n 526 1e+20
n 527 2e+20
n 528 2e+20
n 529 1e+20
n 530 1e+20
n 531 1e+20
n 532 1e+20
n 533 1e+20
n 534 1e+20
n 535 2e+20
n 536 2e+20
n 537 1e+20
n 538 1e+20
n 539 2e+20
n 540 2e+20
n 541 1e+20
n 542 1e+20
n 543 1e+20
n 544 1e+20
n 545 2e+20
n 546 2e+20
n 547 1e+20
n 548 1e+20
n 549 2e+20
n 550 2e+20
n 551 1e+20
n 552 1e+20
n 553 1e+20
n 554 1e+20
n 555 1e+20
n 556 1e+20
n 557 2e+20
n 558 2e+20
n 559 1e+20
n 560 1e+20
n 561 2e+20
n 562 2e+20
n 563 1e+20
n 564 1e+20
n 565 1e+20
n 566 1e+20
n 567 2e+20
n 568 2e+20
n 569 1e+20
n 570 1e+20
n 571 2e+20
n 572 2e+20
n 573 1e+20
n 574 1e+20
n 575 1e+20
n 576 1e+20
n 577 1e+20
n 578 1e+20
n 579 2e+20
n 580 2e+20
n 581 1e+20
n 582 1e+20
n 583 2e+20
n 584 2e+20
n 585 1e+20
n 586 1e+20
n 587 1e+20
n 588 1e+20
n 589 2e+20
n 590 2e+20
n 591 1e+20
n 592 1e+20
n 593 2e+20
n 594 2e+20
n 595 1e+20
n 596 1e+20
n 597 1e+20
n 598 1e+20
n 599 1e+20
n 600 1e+20
n 601 2e+20
n 602 2e+20
n 603 1e+20
n 604 1e+20
n 605 2e+20
n 606 2e+20
n 607 1e+20
n 608 1e+20
n 609 1e+20
n 610 1e+20
n 611 2e+20
n 612 2e+20
n 613 1e+20
n 614 1e+20
n 615 2e+20
n 616 2e+20
n 617 1e+20
n 618 1e+20
n 619 1e+20
n 620 1e+20
n 621 1e+20
n 622 1e+20
n 623 2e+20
n 624 2e+20
n 625 1e+20
n 626 1e+20
n 627 2e+20
n 628 2e+20
n 629 1e+20
n 630 1e+20
n 631 1e+20
n 632 1e+20
n 633 2e+20
n 634 2e+20
n 635 1e+20
n 636 1e+20
n 637 2e+20
n 638 2e+20
n 639 1e+20
n 640 1e+20
n 641 1e+20
n 642 1e+20
n 643 1e+20
n 644 1e+20
n 645 2e+20
n 646 2e+20
n 647 1e+20
n 648 1e+20
n 649 2e+20
n 650 2e+20
n 651 1e+20
n 652 1e+20
n 653 1e+20
n 654 1e+20
n 655 2e+20
n 656 2e+20
n 657 1e+20
n 658 1e+20
n 659 2e+20
n 660 2e+20
n 661 1e+20
n 662 1e+20
n 663 1e+20
n 664 1e+20
n 665 1e+20
n 666 1e+20
n 667 2e+20
n 668 2e+20
n 669 1e+20
n 670 1e+20
n 671 2e+20
n 672 2e+20
n 673 1e+20
n 674 1e+20
n 675 1e+20
n 676 1e+20
n 677 2e+20
n 678 2e+20
n 679 1e+20
n 680 1e+20
n 681 2e+20
n 682 2e+20
n 683 1e+20
n 684 1e+20
n 685 1e+20
n 686 1e+20
n 687 1e+20
n 688 1e+20
n 689 2e+20
n 690 2e+20
n 691 1e+20
n 692 1e+20
n 693 2e+20
n 694 2e+20
n 695 1e+20
n 696 1e+20
n 697 1e+20
n 698 1e+20
n 699 2e+20
n 700 2e+20
n 701 1e+20
n 702 1e+20
n 703 2e+20
n 704 2e+20
n 705 1e+20
n 706 1e+20
n 707 1e+20
n 708 1e+20
n 709 1e+20
n 710 1e+20
n 711 2e+20
n 712 2e+20
n 713 1e+20
n 714 1e+20
n 715 1e+20
n 716 1e+20
n 717 2e+20
n 718 2e+20
n 719 1e+20
n 720 1e+20
n 721 2e+20
n 722 2e+20
n 723 2e+20
n 724 2e+20
n 725 2e+20
n 726 2e+20
n 727 2e+20
n 728 2e+20
n 729 2e+20
n 730 2e+20
n 731 2e+20
n 732 2e+20
n 733 2e+20
n 734 2e+20
n 735 2e+20
n 736 2e+20
n 737 2e+20
n 738 2e+20
n 739 2e+20
n 740 2e+20
n 741 2e+20
n 742 2e+20
n 743 2e+20
n 744 2e+20
n 745 2e+20
n 746 2e+20
n 747 2e+20
n 748 2e+20
n 749 2e+20
n 750 2e+20
n 751 2e+20
n 752 2e+20
n 753 2e+20
n 754 2e+20
n 755 2e+20
n 756 2e+20
n 757 2e+20
n 758 2e+20
n 759 2e+20
n 760 2e+20
n 761 2e+20
n 762 2e+20
n 763 2e+20
n 764 2e+20
n 765 2e+20
n 766 2e+20
n 767 2e+20
n 768 2e+20
n 769 2e+20
n 770 2e+20
n 771 2e+20
n 772 2e+20
n 773 2e+20
n 774 2e+20
n 775 1e+20
n 776 2e+20
n 777 2e+20
n 778 1e+20
n 779 1e+20
n 780 1e+20
n 781 1e+20
n 782 1e+20
n 783 2e+20
n 784 2e+20
n 785 1e+20
n 786 2e+20
n 787 2e+20
n 788 1e+20
n 789 2e+20
n 790 2e+20
n 791 1e+20
n 792 2e+20
n 793 2e+20
n 794 1e+20
n 795 2e+20
n 796 2e+20
n 797 1e+20
n 798 2e+20
n 799 2e+20
n 800 1e+20
n 801 1e+20
n 802 1e+20
n 803 2e+20
n 804 2e+20
n 805 1e+20
n 806 2e+20
n 807 2e+20
n 808 1e+20
n 809 1e+20
n 810 1e+20
n 811 1e+20
n 812 1e+20
n 813 1e+20
n 814 1e+20
n 815 1e+20
n 816 1e+20
n 817 1e+20
n 818 1e+20
n 819 1e+20
n 820 1e+20
n 821 1e+20
n 822 1e+20
n 823 1e+20
n 824 1e+20
n 825 1e+20
n 826 1e+20
n 827 1e+20
n 828 1e+20
n 829 1e+20
n 830 1e+20
n 831 1e+20
n 832 1e+20
n 833 1e+20
n 834 1e+20
n 835 1e+20
n 836 1e+20
n 837 1e+20
n 838 1e+20
n 839 1e+20
n 840 2e+20
n 841 2e+20
n 842 2e+20
n 843 2e+20
n 844 1e+20
n 845 2e+20
n 846 2e+20
n 847 2e+20
n 848 2e+20
n 849 2e+20
n 850 2e+20
n 851 2e+20
n 852 2e+20
n 853 2e+20
n 854 2e+20
n 855 2e+20
n 856 2e+20
n 857 2e+20
n 858 2e+20
n 859 2e+20
n 860 2e+20
n 861 2e+20
n 862 2e+20
n 863 2e+20
n 864 2e+20
n 865 2e+20
n 866 2e+20
n 867 2e+20
n 868 2e+20
n 869 2e+20
n 870 2e+20
n 871 2e+20
n 872 2e+20
n 873 2e+20
n 874 2e+20
n 875 2e+20
n 876 2e+20
n 877 2e+20
n 878 2e+20
n 879 2e+20
n 880 2e+20
n 881 2e+20
n 882 2e+20
n 883 2e+20
n 884 2e+20
n 885 2e+20
n 886 2e+20
n 887 2e+20
n 888 2e+20
n 889 2e+20
n 890 2e+20
n 891 2e+20
n 892 2e+20
n 893 2e+20
n 894 2e+20
n 895 2e+20
n 896 2e+20
n 897 2e+20
n 898 2e+20
n 899 2e+20
n 900 2e+20
n 901 2e+20
n 902 2e+20
n 903 2e+20
n 904 2e+20
n 905 2e+20
n 906 2e+20
n 907 1e+20
n 908 1e+20
n 909 2e+20
n 910 2e+20
n 911 2e+20
n 912 2e+20
n 913 1e+20
n 914 1e+20
n 915 2e+20
n 916 2e+20
n 917 2e+20
n 918 2e+20
n 919 1e+20
n 920 1e+20
n 921 2e+20
n 922 2e+20
n 923 2e+20
n 924 2e+20
n 925 1e+20
n 926 1e+20
n 927 1e+20
n 928 1e+20
n 929 1e+20
n 930 1e+20
n 931 1e+20
n 932 1e+20
n 933 1e+20
n 934 1e+20
n 935 1e+20
n 936 1e+20
n 937 1e+20
n 938 2e+20
n 939 2e+20
n 940 2e+20
n 941 2e+20
n 942 1e+20
n 943 2e+20
n 944 2e+20
n 945 1e+20
n 946 2e+20
n 947 2e+20
n 948 1e+20
n 949 2e+20
n 950 2e+20
n 951 1e+20
n 952 2e+20
n 953 2e+20
n 954 1e+20
n 955 2e+20
n 956 2e+20
n 957 1e+20
n 958 2e+20
n 959 2e+20
n 960 1e+20
n 961 1e+20
n 962 1e+20
n 963 2e+20
n 964 2e+20
n 965 1e+20
n 966 2e+20
n 967 2e+20
n 968 2e+20
n 969 2e+20
n 970 2e+20
n 971 2e+20
n 972 2e+20
n 973 2e+20
n 974 2e+20
n 975 2e+20
n 976 2e+20
n 977 2e+20
n 978 2e+20
n 979 2e+20
n 980 2e+20
n 981 2e+20
n 982 2e+20
n 983 2e+20
n 984 2e+20
n 985 2e+20
n 986 2e+20
n 987 2e+20
n 988 1e+20
n 989 2e+20
n 990 2e+20
n 991 1e+20
n 992 1e+20
n 993 1e+20
n 994 1e+20
n 995 1e+20
n 996 1e+20
n 997 1e+20
n 998 1e+20
n 999 1e+20
n 1000 1e+20
n 1001 1e+20
n 1002 1e+20
n 1003 1e+20
n 1004 1e+20
n 1005 1e+20
n 1006 1e+20
n 1007 1e+20
n 1008 1e+20
n 1009 2e+20
n 1010 2e+20
n 1011 2e+20
n 1012 2e+20
n 1013 2e+20
n 1014 2e+20
n 1015 2e+20
n 1016 2e+20
n 1017 2e+20
n 1018 2e+20
n 1019 2e+20
n 1020 2e+20
n 1021 2e+20
n 1022 2e+20
n 1023 2e+20
n 1024 2e+20
n 1025 2e+20
n 1026 2e+20
n 1027 2e+20
n 1028 2e+20
n 1029 2e+20
n 1030 2e+20
n 1031 2e+20
n 1032 2e+20
n 1033 2e+20
n 1034 2e+20
n 1035 2e+20
n 1036 2e+20
n 1037 2e+20
n 1038 2e+20
n 1039 2e+20
n 1040 2e+20
n 1041 2e+20
n 1042 2e+20
n 1043 2e+20
n 1044 2e+20
n 1045 2e+20
n 1046 2e+20
n 1047 2e+20
n 1048 2e+20
n 1049 2e+20
n 1050 2e+20
n 1051 2e+20
n 1052 2e+20
n 1053 1e+20
n 1054 1e+20
n 1055 2e+20
n 1056 2e+20
n 1057 1e+20
n 1058 1e+20
n 1059 2e+20
n 1060 2e+20
n 1061 1e+20
n 1062 1e+20
n 1063 2e+20
n 1064 2e+20
n 1065 1e+20
n 1066 1e+20
n 1067 2e+20
n 1068 2e+20
n 1069 1e+20
n 1070 1e+20
n 1071 2e+20
n 1072 2e+20
n 1073 1e+20
n 1074 1e+20
n 1075 1e+20
n 1076 1e+20
n 1077 1e+20
n 1078 1e+20
n 1079 1e+20
n 1080 1e+20
n 1081 1e+20
n 1082 1e+20
n 1083 1e+20
n 1084 1e+20
n 1085 1e+20
n 1086 1e+20
n 1087 1e+20
n 1088 1e+20
n 1089 1e+20
n 1090 1e+20
n 1091 1e+20
n 1092 2e+20
n 1093 2e+20
n 1094 1e+20
n 1095 2e+20
n 1096 2e+20
n 1097 2e+20
n 1098 2e+20
n 1099 2e+20
n 1100 2e+20
n 1101 2e+20
n 1102 2e+20
n 1103 2e+20
n 1104 2e+20
n 1105 2e+20
n 1106 2e+20
n 1107 2e+20
n 1108 2e+20
n 1109 2e+20
n 1110 2e+20
n 1111 2e+20
n 1112 2e+20
n 1113 2e+20
n 1114 2e+20
n 1115 2e+20
n 1116 2e+20
n 1117 2e+20
n 1118 2e+20
n 1119 2e+20
n 1120 2e+20
n 1121 2e+20
n 1122 2e+20
n 1123 2e+20
n 1124 2e+20
n 1125 2e+20
n 1126 2e+20
n 1127 2e+20
n 1128 2e+20
n 1129 2e+20
n 1130 2e+20
n 1131 2e+20
n 1132 2e+20
n 1133 2e+20
n 1134 2e+20
n 1135 1e+20
n 1136 1e+20
n 1137 1e+20
n 1138 1e+20
n 1139 1e+20
n 1140 1e+20
n 1141 1e+20
n 1142 1e+20
n 1143 1e+20
n 1144 1e+20
n 1145 1e+20
n 1146 1e+20
n 1147 1e+20
n 1148 1e+20
n 1149 1e+20
n 1150 1e+20
n 1151 1e+20
n 1152 1e+20
n 1153 1e+20
n 1154 2e+20
n 1155 2e+20
n 1156 1e+20
n 1157 1e+20
n 1158 1e+20
n 1159 1e+20
n 1160 1e+20
n 1161 1e+20
n 1162 1e+20
n 1163 1e+20
n 1164 1e+20
n 1165 1e+20
n 1166 1e+20
n 1167 1e+20
n 1168 1e+20
n 1169 1e+20
n 1170 2e+20
n 1171 2e+20
n 1172 1e+20
n 1173 2e+20
n 1174 2e+20
n 1175 1e+20
n 1176 1e+20
n 1177 1e+20
n 1178 1e+20
n 1179 1e+20
n 1180 2e+20
n 1181 2e+20
n 1182 1e+20
n 1183 1e+20
n 1184 1e+20
n 1185 2e+20
n 1186 2e+20
n 1187 2e+20
n 1188 2e+20
n 1189 2e+20
n 1190 2e+20
n 1191 2e+20
n 1192 2e+20
n 1193 2e+20
n 1194 2e+20
n 1195 2e+20
n 1196 2e+20
n 1197 2e+20
n 1198 2e+20
n 1199 1e+20
n 1200 1e+20
n 1201 1e+20
n 1202 1e+20
n 1203 1e+20
n 1204 1e+20
n 1205 2e+20
n 1206 2e+20
n 1207 2e+20
n 1208 2e+20
e 1 11
e 2 11
e 3 11
e 4 11
e 5 11
e 6 11
e 7 11
e 8 11
e 9 11
e 10 11
e 12 22
e 13 22
e 14 22
e 15 22
e 16 22
e 17 22
e 18 22
e 19 22
e 20 22
e 21 22
e 23 33
e 24 33
e 25 33
e 26 33
e 27 33
e 28 33
e 29 33
e 30 33
e 31 33
e 32 33
e 34 35
e 35 1
e 34 2
e 34 3
e 34 4
e 34 5
e 34 6
e 34 7
e 34 8
e 34 9
e 36 37
e 37 12
e 36 13
e 36 14
e 36 15
e 36 16
e 36 17
e 36 18
e 36 19
e 36 20
e 38 39
e 39 23
e 38 24
e 38 25
e 38 26
e 38 27
e 38 28
e 38 29
e 38 30
e 38 31
e 40 49
e 41 49
e 42 49
e 43 49
e 44 49
e 45 49
e 46 49
e 47 49
e 48 49
e 50 51
e 51 2
e 50 3
e 50 4
e 50 5
e 50 6
e 50 7
e 50 8
e 50 9
e 52 53
e 53 13
e 52 14
e 52 15
e 52 16
e 52 17
e 52 18
e 52 19
e 52 20
e 54 55
e 55 24
e 54 25
e 54 26
e 54 27
e 54 28
e 54 29
e 54 30
e 54 31
e 56 57
e 57 40
e 56 41
e 56 42
e 56 43
e 56 44
e 56 45
e 56 46
e 56 47
e 58 59
e 59 3
e 58 4
e 58 5
e 58 6
e 58 7
e 58 8
e 58 9
e 60 61
e 61 14
e 60 15
e 60 16
e 60 17
e 60 18
e 60 19
e 60 20
e 62 63
e 63 25
e 62 26
e 62 27
e 62 28
e 62 29
e 62 30
e 62 31
e 64 65
e 65 41
e 64 42
e 64 43
e 64 44
e 64 45
e 64 46
e 64 47
e 66 67
e 67 4
e 66 5
e 66 6
e 66 7
e 66 8
e 66 9
e 68 69
e 69 15
e 68 16
e 68 17
e 68 18
e 68 19
e 68 20
e 70 71
e 71 26
e 70 27
e 70 28
e 70 29
e 70 30
e 70 31
e 72 73
e 73 42
e 72 43
e 72 44
e 72 45
e 72 46
e 72 47
e 79 80
e 80 74
e 79 75
e 79 76
e 79 77
e 79 78
e 85 86
e 86 81
e 85 82
e 85 83
e 85 84
e 85 40
e 91 92
e 92 87
e 91 88
e 91 89
e 91 90
e 91 41
e 97 98
e 98 93
e 97 94
e 97 95
e 97 96
e 97 42
e 103 104
e 104 99
e 103 100
e 103 101
e 103 102
e 103 43
e 109 110
e 110 105
e 109 106
e 109 107
e 109 108
e 109 44
e 115 116
e 116 111
e 115 112
e 115 113
e 115 114
e 115 45
e 121 122
e 122 117
e 121 118
e 121 119
e 121 120
e 121 46
e 127 128
e 128 123
e 127 124
e 127 125
e 127 126
e 127 47
e 129 130
e 130 5
e 129 6
e 129 7
e 129 8
e 129 9
e 131 132
e 132 16
e 131 17
e 131 18
e 131 19
e 131 20
e 133 134
e 134 27
e 133 28
e 133 29
e 133 30
e 133 31
e 137 138
e 138 40
e 137 41
e 137 43
e 137 135
e 137 136
e 142 143
e 143 40
e 142 41
e 142 139
e 142 140
e 142 141
e 146 147
e 147 40
e 146 135
e 146 139
e 146 144
e 146 145
e 149 150
e 150 41
e 149 42
e 149 43
e 149 148
e 149 139
e 152 153
e 153 41
e 152 42
e 152 45
e 152 151
e 152 144
e 154 155
e 155 43
e 154 44
e 154 45
e 154 46
e 154 47
e 156 157
e 157 6
e 156 7
e 156 8
e 156 9
e 158 159
e 159 75
e 158 76
e 158 77
e 158 78
e 160 161
e 161 82
e 160 83
e 160 84
e 160 40
e 162 163
e 163 88
e 162 89
e 162 90
e 162 41
e 164 165
e 165 94
e 164 95
e 164 96
e 164 42
e 166 167
e 167 100
e 166 101
e 166 102
e 166 43
e 168 169
e 169 106
e 168 107
e 168 108
e 168 44
e 170 171
e 171 112
e 170 113
e 170 114
e 170 45
e 172 173
e 173 118
e 172 119
e 172 120
e 172 46
e 174 175
e 175 124
e 174 125
e 174 126
e 174 47
e 176 177
e 177 17
e 176 18
e 176 19
e 176 20
e 178 179
e 179 28
e 178 29
e 178 30
e 178 31
e 180 181
e 181 41
e 180 43
e 180 135
e 180 136
e 182 183
e 183 41
e 182 139
e 182 140
e 182 141
e 184 185
e 185 42
e 184 43
e 184 148
e 184 139
e 187 188
e 188 42
e 187 43
e 187 186
e 187 140
e 189 190
e 190 42
e 189 45
e 189 151
e 189 144
e 191 192
e 192 44
e 191 45
e 191 46
e 191 47
e 193 194
e 194 135
e 193 139
e 193 144
e 193 145
e 197 198
e 198 195
e 197 196
e 197 75
e 200 201
e 201 74
e 200 199
e 200 1
e 202 205
e 203 205
e 204 205
e 207 208
e 208 202
e 207 206
e 207 76
e 210 211
e 211 209
e 210 196
e 210 82
e 212 214
e 203 214
e 213 214
e 216 217
e 217 212
e 216 215
e 216 77
e 219 220
e 220 81
e 219 218
e 219 2
e 221 224
e 222 224
e 223 224
e 225 226
e 226 221
e 225 206
e 225 83
e 228 229
e 229 227
e 228 196
e 228 88
e 230 232
e 222 232
e 231 232
e 233 234
e 234 230
e 233 215
e 233 84
e 236 237
e 237 87
e 236 235
e 236 3
e 238 241
e 239 241
e 240 241
e 242 243
e 243 238
e 242 206
e 242 89
e 245 246
e 246 244
e 245 196
e 245 94
e 247 249
e 239 249
e 248 249
e 250 251
e 251 247
e 250 215
e 250 90
e 253 254
e 254 93
e 253 252
e 253 4
e 255 258
e 256 258
e 257 258
e 259 260
e 260 255
e 259 206
e 259 95
e 262 263
e 263 261
e 262 196
e 262 100
e 264 266
e 256 266
e 265 266
e 267 268
e 268 264
e 267 215
e 267 96
e 270 271
e 271 99
e 270 269
e 270 5
e 272 275
e 273 275
e 274 275
e 276 277
e 277 272
e 276 206
e 276 101
e 279 280
e 280 278
e 279 196
e 279 106
e 281 283
e 273 283
e 282 283
e 284 285
e 285 281
e 284 215
e 284 102
e 287 288
e 288 105
e 287 286
e 287 6
e 289 292
e 290 292
e 291 292
e 293 294
e 294 289
e 293 206
e 293 107
e 296 297
e 297 295
e 296 196
e 296 112
e 298 300
e 290 300
e 299 300
e 301 302
e 302 298
e 301 215
e 301 108
e 304 305
e 305 111
e 304 303
e 304 7
e 306 309
e 307 309
e 308 309
e 310 311
e 311 306
e 310 206
e 310 113
e 313 314
e 314 312
e 313 196
e 313 118
e 315 317
e 307 317
e 316 317
e 318 319
e 319 315
e 318 215
e 318 114
e 321 322
e 322 117
e 321 320
e 321 8
e 323 326
e 324 326
e 325 326
e 327 328
e 328 323
e 327 206
e 327 119
e 330 331
e 331 329
e 330 196
e 330 124
e 332 334
e 324 334
e 333 334
e 335 336
e 336 332
e 335 215
e 335 120
e 338 339
e 339 123
e 338 337
e 338 9
e 340 343
e 341 343
e 342 343
e 344 345
e 345 340
e 344 206
e 344 125
e 346 348
e 341 348
e 347 348
e 349 350
e 350 346
e 349 215
e 349 126
e 353 354
e 354 1
e 353 351
e 353 352
e 355 356
e 356 204
e 355 352
e 355 12
e 358 359
e 359 213
e 358 352
e 358 357
e 361 362
e 362 2
e 361 351
e 361 360
e 364 365
e 365 3
e 364 351
e 364 363
e 367 368
e 368 4
e 367 351
e 367 366
e 370 371
e 371 5
e 370 351
e 370 369
e 373 374
e 374 6
e 373 351
e 373 372
e 375 376
e 376 7
e 375 8
e 375 9
e 378 379
e 379 7
e 378 351
e 378 377
e 381 382
e 382 8
e 381 351
e 381 380
e 384 385
e 385 9
e 384 351
e 384 383
e 386 387
e 387 223
e 386 360
e 386 13
e 389 390
e 390 231
e 389 360
e 389 388
e 391 392
e 392 240
e 391 363
e 391 14
e 394 395
e 395 248
e 394 363
e 394 393
e 396 397
e 397 257
e 396 366
e 396 15
e 399 400
e 400 265
e 399 366
e 399 398
e 401 402
e 402 274
e 401 369
e 401 16
e 404 405
e 405 282
e 404 369
e 404 403
e 406 407
e 407 291
e 406 372
e 406 17
e 409 410
e 410 299
e 409 372
e 409 408
e 411 412
e 412 308
e 411 377
e 411 18
e 414 415
e 415 316
e 414 377
e 414 413
e 416 417
e 417 325
e 416 380
e 416 19
e 419 420
e 420 333
e 419 380
e 419 418
e 421 422
e 422 342
e 421 383
e 421 20
e 424 425
e 425 347
e 424 383
e 424 423
e 428 429
e 429 12
e 428 426
e 428 427
e 431 432
e 432 13
e 431 426
e 431 430
e 434 435
e 435 14
e 434 426
e 434 433
e 437 438
e 438 15
e 437 426
e 437 436
e 440 441
e 441 16
e 440 426
e 440 439
e 443 444
e 444 17
e 443 426
e 443 442
e 445 446
e 446 18
e 445 19
e 445 20
e 448 449
e 449 18
e 448 426
e 448 447
e 451 452
e 452 19
e 451 426
e 451 450
e 454 455
e 455 20
e 454 426
e 454 453
e 457 458
e 458 456
e 457 427
e 457 23
e 460 461
e 461 459
e 460 430
e 460 24
e 463 464
e 464 462
e 463 433
e 463 25
e 466 467
e 467 465
e 466 436
e 466 26
e 469 470
e 470 468
e 469 439
e 469 27
e 472 473
e 473 471
e 472 442
e 472 28
e 475 476
e 476 474
e 475 447
e 475 29
e 478 479
e 479 477
e 478 450
e 478 30
e 481 482
e 482 480
e 481 453
e 481 31
e 483 484
e 484 76
e 483 77
e 483 78
e 485 486
e 486 83
e 485 84
e 485 40
e 487 488
e 488 89
e 487 90
e 487 41
e 489 490
e 490 95
e 489 96
e 489 42
e 491 492
e 492 101
e 491 102
e 491 43
e 493 494
e 494 107
e 493 108
e 493 44
e 495 496
e 496 113
e 495 114
e 495 45
e 497 498
e 498 119
e 497 120
e 497 46
e 499 500
e 500 125
e 499 126
e 499 47
e 501 502
e 502 29
e 501 30
e 501 31
e 504 505
e 505 41
e 504 503
e 504 135
e 506 507
e 507 43
e 506 148
e 506 139
e 508 509
e 509 43
e 508 186
e 508 140
e 510 511
e 511 43
e 510 135
e 510 136
e 512 513
e 513 45
e 512 46
e 512 47
e 514 515
e 515 45
e 514 151
e 514 144
e 516 518
e 48 518
e 517 518
e 519 520
e 520 139
e 519 140
e 519 141
e 521 522
e 522 139
e 521 144
e 521 145
e 523 524
e 524 195
e 523 199
e 525 526
e 526 195
e 525 75
e 527 528
e 528 74
e 527 203
e 529 530
e 530 74
e 529 1
e 531 532
e 532 74
e 531 78
e 533 534
e 534 202
e 533 203
e 535 536
e 536 202
e 535 204
e 537 538
e 538 202
e 537 76
e 539 540
e 540 209
e 539 218
e 541 542
e 542 209
e 541 82
e 543 544
e 544 212
e 543 203
e 545 546
e 546 212
e 545 213
e 547 548
e 548 212
e 547 77
e 549 550
e 550 81
e 549 222
e 551 552
e 552 81
e 551 2
e 553 554
e 554 81
e 553 40
e 555 556
e 556 221
e 555 222
e 557 558
e 558 221
e 557 223
e 559 560
e 560 221
e 559 83
e 561 562
e 562 227
e 561 235
e 563 564
e 564 227
e 563 88
e 565 566
e 566 230
e 565 222
e 567 568
e 568 230
e 567 231
e 569 570
e 570 230
e 569 84
e 571 572
e 572 87
e 571 239
e 573 574
e 574 87
e 573 3
e 575 576
e 576 87
e 575 41
e 577 578
e 578 238
e 577 239
e 579 580
e 580 238
e 579 240
e 581 582
e 582 238
e 581 89
e 583 584
e 584 244
e 583 252
e 585 586
e 586 244
e 585 94
e 587 588
e 588 247
e 587 239
e 589 590
e 590 247
e 589 248
e 591 592
e 592 247
e 591 90
e 593 594
e 594 93
e 593 256
e 595 596
e 596 93
e 595 4
e 597 598
e 598 93
e 597 42
e 599 600
e 600 255
e 599 256
e 601 602
e 602 255
e 601 257
e 603 604
e 604 255
e 603 95
e 605 606
e 606 261
e 605 269
e 607 608
e 608 261
e 607 100
e 609 610
e 610 264
e 609 256
e 611 612
e 612 264
e 611 265
e 613 614
e 614 264
e 613 96
e 615 616
e 616 99
e 615 273
e 617 618
e 618 99
e 617 5
e 619 620
e 620 99
e 619 43
e 621 622
e 622 272
e 621 273
e 623 624
e 624 272
e 623 274
e 625 626
e 626 272
e 625 101
e 627 628
e 628 278
e 627 286
e 629 630
e 630 278
e 629 106
e 631 632
e 632 281
e 631 273
e 633 634
e 634 281
e 633 282
e 635 636
e 636 281
e 635 102
e 637 638
e 638 105
e 637 290
e 639 640
e 640 105
e 639 6
e 641 642
e 642 105
e 641 44
e 643 644
e 644 289
e 643 290
e 645 646
e 646 289
e 645 291
e 647 648
e 648 289
e 647 107
e 649 650
e 650 295
e 649 303
e 651 652
e 652 295
e 651 112
e 653 654
e 654 298
e 653 290
e 655 656
e 656 298
e 655 299
e 657 658
e 658 298
e 657 108
e 659 660
e 660 111
e 659 307
e 661 662
e 662 111
e 661 7
e 663 664
e 664 111
e 663 45
e 665 666
e 666 306
e 665 307
e 667 668
e 668 306
e 667 308
e 669 670
e 670 306
e 669 113
e 671 672
e 672 312
e 671 320
e 673 674
e 674 312
e 673 118
e 675 676
e 676 315
e 675 307
e 677 678
e 678 315
e 677 316
e 679 680
e 680 315
e 679 114
e 681 682
e 682 117
e 681 324
e 683 684
e 684 117
e 683 8
e 685 686
e 686 117
e 685 46
e 687 688
e 688 323
e 687 324
e 689 690
e 690 323
e 689 325
e 691 692
e 692 323
e 691 119
e 693 694
e 694 329
e 693 337
e 695 696
e 696 329
e 695 124
e 697 698
e 698 332
e 697 324
e 699 700
e 700 332
e 699 333
e 701 702
e 702 332
e 701 120
e 703 704
e 704 123
e 703 341
e 705 706
e 706 123
e 705 9
e 707 708
e 708 123
e 707 47
e 709 710
e 710 340
e 709 341
e 711 712
e 712 340
e 711 342
e 713 714
e 714 340
e 713 125
e 715 716
e 716 346
e 715 341
e 717 718
e 718 346
e 717 347
e 719 720
e 720 346
e 719 126
e 721 722
e 722 199
e 721 1
e 723 724
e 724 203
e 723 204
e 725 726
e 726 203
e 725 213
e 727 728
e 728 218
e 727 2
e 729 730
e 730 222
e 729 223
e 731 732
e 732 222
e 731 231
e 733 734
e 734 235
e 733 3
e 735 736
e 736 239
e 735 240
e 737 738
e 738 239
e 737 248
e 739 740
e 740 252
e 739 4
e 741 742
e 742 256
e 741 257
e 743 744
e 744 256
e 743 265
e 745 746
e 746 269
e 745 5
e 747 748
e 748 273
e 747 274
e 749 750
e 750 273
e 749 282
e 751 752
e 752 286
e 751 6
e 753 754
e 754 290
e 753 291
e 755 756
e 756 290
e 755 299
e 757 758
e 758 303
e 757 7
e 759 760
e 760 307
e 759 308
e 761 762
e 762 307
e 761 316
e 763 764
e 764 320
e 763 8
e 765 766
e 766 324
e 765 325
e 767 768
e 768 324
e 767 333
e 769 770
e 770 337
e 769 9
e 771 772
e 772 341
e 771 342
e 773 774
e 774 341
e 773 347
e 1 775
e 10 775
e 1 776
e 351 776
e 1 777
e 352 777
e 778 779
e 779 204
e 778 12
e 780 781
e 781 213
e 780 357
e 2 782
e 10 782
e 2 783
e 351 783
e 2 784
e 360 784
e 3 785
e 10 785
e 3 786
e 351 786
e 3 787
e 363 787
e 4 788
e 10 788
e 4 789
e 351 789
e 4 790
e 366 790
e 5 791
e 10 791
e 5 792
e 351 792
e 5 793
e 369 793
e 6 794
e 10 794
e 6 795
e 351 795
e 6 796
e 372 796
e 7 797
e 10 797
e 7 798
e 351 798
e 7 799
e 377 799
e 800 801
e 801 8
e 800 9
e 8 802
e 10 802
e 8 803
e 351 803
e 8 804
e 380 804
e 9 805
e 10 805
e 9 806
e 351 806
e 9 807
e 383 807
e 808 809
e 809 223
e 808 13
e 810 811
e 811 231
e 810 388
e 812 813
e 813 240
e 812 14
e 814 815
e 815 248
e 814 393
e 816 817
e 817 257
e 816 15
e 818 819
e 819 265
e 818 398
e 820 821
e 821 274
e 820 16
e 822 823
e 823 282
e 822 403
e 824 825
e 825 291
e 824 17
e 826 827
e 827 299
e 826 408
e 828 829
e 829 308
e 828 18
e 830 831
e 831 316
e 830 413
e 832 833
e 833 325
e 832 19
e 834 835
e 835 333
e 834 418
e 836 837
e 837 342
e 836 20
e 838 839
e 839 347
e 838 423
e 840 841
e 841 10
e 840 351
e 842 843
e 843 10
e 842 196
e 845 846
e 846 10
e 845 844
e 847 848
e 848 351
e 847 352
e 849 850
e 850 351
e 849 360
e 851 852
e 852 351
e 851 363
e 853 854
e 854 351
e 853 366
e 855 856
e 856 351
e 855 369
e 857 858
e 858 351
e 857 372
e 859 860
e 860 351
e 859 377
e 861 862
e 862 351
e 861 380
e 863 864
e 864 351
e 863 383
e 865 866
e 866 196
e 865 75
e 867 868
e 868 196
e 867 82
e 869 870
e 870 196
e 869 88
e 871 872
e 872 196
e 871 94
e 873 874
e 874 196
e 873 100
e 875 876
e 876 196
e 875 106
e 877 878
e 878 196
e 877 112
e 879 880
e 880 196
e 879 118
e 881 882
e 882 196
e 881 124
e 883 884
e 884 352
e 883 12
e 885 886
e 886 352
e 885 357
e 887 888
e 888 360
e 887 13
e 889 890
e 890 360
e 889 388
e 891 892
e 892 363
e 891 14
e 893 894
e 894 363
e 893 393
e 895 896
e 896 366
e 895 15
e 897 898
e 898 366
e 897 398
e 899 900
e 900 369
e 899 16
e 901 902
e 902 369
e 901 403
e 903 904
e 904 372
e 903 17
e 905 906
e 906 372
e 905 408
e 907 908
e 908 75
e 907 78
e 909 910
e 910 377
e 909 18
e 911 912
e 912 377
e 911 413
e 913 914
e 914 82
e 913 40
e 915 916
e 916 380
e 915 19
e 917 918
e 918 380
e 917 418
e 919 920
e 920 88
e 919 41
e 921 922
e 922 383
e 921 20
e 923 924
e 924 383
e 923 423
e 925 926
e 926 94
e 925 42
e 927 928
e 928 100
e 927 43
e 929 930
e 930 106
e 929 44
e 931 932
e 932 112
e 931 45
e 933 934
e 934 118
e 933 46
e 935 936
e 936 124
e 935 47
e 12 937
e 21 937
e 12 938
e 426 938
e 12 939
e 427 939
e 940 941
e 941 357
e 940 456
e 13 942
e 21 942
e 13 943
e 426 943
e 13 944
e 430 944
e 14 945
e 21 945
e 14 946
e 426 946
e 14 947
e 433 947
e 15 948
e 21 948
e 15 949
e 426 949
e 15 950
e 436 950
e 16 951
e 21 951
e 16 952
e 426 952
e 16 953
e 439 953
e 17 954
e 21 954
e 17 955
e 426 955
e 17 956
e 442 956
e 18 957
e 21 957
e 18 958
e 426 958
e 18 959
e 447 959
e 960 961
e 961 19
e 960 20
e 19 962
e 21 962
e 19 963
e 426 963
e 19 964
e 450 964
e 20 965
e 21 965
e 20 966
e 426 966
e 20 967
e 453 967
e 968 969
e 969 388
e 968 459
e 970 971
e 971 393
e 970 462
e 972 973
e 973 398
e 972 465
e 974 975
e 975 403
e 974 468
e 976 977
e 977 408
e 976 471
e 978 979
e 979 413
e 978 474
e 980 981
e 981 418
e 980 477
e 982 983
e 983 423
e 982 480
e 984 985
e 985 21
e 984 426
e 986 987
e 987 21
e 986 206
e 989 990
e 990 21
e 989 988
e 991 992
e 992 456
e 991 23
e 993 994
e 994 459
e 993 24
e 995 996
e 996 462
e 995 25
e 997 998
e 998 465
e 997 26
e 999 1000
e 1000 468
e 999 27
e 1001 1002
e 1002 471
e 1001 28
e 1003 1004
e 1004 474
e 1003 29
e 1005 1006
e 1006 477
e 1005 30
e 1007 1008
e 1008 480
e 1007 31
e 1009 1010
e 1010 426
e 1009 427
e 1011 1012
e 1012 426
e 1011 430
e 1013 1014
e 1014 426
e 1013 433
e 1015 1016
e 1016 426
e 1015 436
e 1017 1018
e 1018 426
e 1017 439
e 1019 1020
e 1020 426
e 1019 442
e 1021 1022
e 1022 426
e 1021 447
e 1023 1024
e 1024 426
e 1023 450
e 1025 1026
e 1026 426
e 1025 453
e 1027 1028
e 1028 206
e 1027 76
e 1029 1030
e 1030 206
e 1029 83
e 1031 1032
e 1032 206
e 1031 89
e 1033 1034
e 1034 206
e 1033 95
e 1035 1036
e 1036 206
e 1035 101
e 1037 1038
e 1038 206
e 1037 107
e 1039 1040
e 1040 206
e 1039 113
e 1041 1042
e 1042 206
e 1041 119
e 1043 1044
e 1044 206
e 1043 125
e 1045 1046
e 1046 427
e 1045 23
e 1047 1048
e 1048 430
e 1047 24
e 1049 1050
e 1050 433
e 1049 25
e 1051 1052
e 1052 436
e 1051 26
e 1053 1054
e 1054 76
e 1053 78
e 1055 1056
e 1056 439
e 1055 27
e 1057 1058
e 1058 83
e 1057 40
e 1059 1060
e 1060 442
e 1059 28
e 1061 1062
e 1062 89
e 1061 41
e 1063 1064
e 1064 447
e 1063 29
e 1065 1066
e 1066 95
e 1065 42
e 1067 1068
e 1068 450
e 1067 30
e 1069 1070
e 1070 101
e 1069 43
e 1071 1072
e 1072 453
e 1071 31
e 1073 1074
e 1074 107
e 1073 44
e 1075 1076
e 1076 113
e 1075 45
e 1077 1078
e 1078 119
e 1077 46
e 1079 1080
e 1080 125
e 1079 47
e 23 1081
e 32 1081
e 24 1082
e 32 1082
e 25 1083
e 32 1083
e 26 1084
e 32 1084
e 27 1085
e 32 1085
e 28 1086
e 32 1086
e 29 1087
e 32 1087
e 1088 1089
e 1089 30
e 1088 31
e 30 1090
e 32 1090
e 31 1091
e 32 1091
e 1092 1093
e 1093 32
e 1092 215
e 1095 1096
e 1096 32
e 1095 1094
e 1097 1098
e 1098 215
e 1097 77
e 1099 1100
e 1100 215
e 1099 84
e 1101 1102
e 1102 215
e 1101 90
e 1103 1104
e 1104 215
e 1103 96
e 1105 1106
e 1106 215
e 1105 102
e 1107 1108
e 1108 215
e 1107 108
e 1109 1110
e 1110 215
e 1109 114
e 1111 1112
e 1112 215
e 1111 120
e 1113 1114
e 1114 215
e 1113 126
e 1115 1116
e 1116 77
e 1115 78
e 1117 1118
e 1118 84
e 1117 40
e 1119 1120
e 1120 90
e 1119 41
e 1121 1122
e 1122 96
e 1121 42
e 1123 1124
e 1124 102
e 1123 43
e 1125 1126
e 1126 108
e 1125 44
e 1127 1128
e 1128 114
e 1127 45
e 1129 1130
e 1130 120
e 1129 46
e 1131 1132
e 1132 126
e 1131 47
e 1133 1134
e 1134 78
e 1133 516
e 40 1135
e 48 1135
e 1136 1137
e 1137 40
e 1136 136
e 1138 1139
e 1139 40
e 1138 141
e 1140 1141
e 1141 40
e 1140 145
e 41 1142
e 48 1142
e 1143 1144
e 1144 41
e 1143 135
e 1145 1146
e 1146 41
e 1145 139
e 1147 1148
e 1148 41
e 1147 144
e 1149 1150
e 1150 41
e 1149 136
e 1151 1152
e 1152 41
e 1151 141
e 42 1153
e 48 1153
e 1154 1155
e 1155 42
e 1154 503
e 1156 1157
e 1157 42
e 1156 139
e 1158 1159
e 1159 42
e 1158 140
e 1160 1161
e 1161 42
e 1160 144
e 43 1162
e 48 1162
e 1163 1164
e 1164 43
e 1163 139
e 1165 1166
e 1166 43
e 1165 140
e 1167 1168
e 1168 43
e 1167 136
e 44 1169
e 48 1169
e 1170 1171
e 1171 44
e 1170 148
e 45 1172
e 48 1172
e 1173 1174
e 1174 45
e 1173 186
e 1175 1176
e 1176 45
e 1175 144
e 1177 1178
e 1178 46
e 1177 47
e 46 1179
e 48 1179
e 1180 1181
e 1181 46
e 1180 151
e 47 1182
e 48 1182
e 1183 1184
e 1184 516
e 1183 48
e 1185 1186
e 1186 516
e 1185 517
e 1187 1188
e 1188 48
e 1187 517
e 1189 1190
e 1190 503
e 1189 135
e 1191 1192
e 1192 148
e 1191 139
e 1193 1194
e 1194 186
e 1193 140
e 1195 1196
e 1196 151
e 1195 144
e 1197 1198
e 1198 135
e 1197 136
e 1199 1200
e 1200 135
e 1199 145
e 1201 1202
e 1202 139
e 1201 141
e 1203 1204
e 1204 139
e 1203 145
e 1205 1206
e 1206 140
e 1205 141
e 1207 1208
e 1208 144
e 1207 145
